NAME: Nonane
SCANNUMBER: -1
RETENTIONTIME: 3.465
RETENTIONINDEX: 899.9534
QUANTMASS: 128.2
PRECURSORTYPE: [M]+.
IONMODE: Positive
SPECTRUMTYPE: Centroid
FORMULA: C9H20
INCHIKEY: BKIMMITUMNQMOS-UHFFFAOYSA-N
SMILES: CCCCCCCCC
AUTHORS: Jefferson Pastuna 
COLLISIONENERGY: 70eV
INSTRUMENT: Shimadzu
INSTRUMENTTYPE: GC-EI-Q
IONIZATION: EI
LICENSE: NA
COMMENT: Semi-standard non-polar RI: 900+/-0; RT in min.: 3.469+/-0.004
Num Peaks: 15
53.05	3653
54.1	2572
55.1	32660
57.1	223790
58.1	8813
69.1	9965
70.1	45146
71.1	67125
72.1	3537
84.1	34192
85.15	112859
98.15	16655
99.15	35983
100.2	2854
128.2	16805

NAME: Dodecane
SCANNUMBER: -1
RETENTIONTIME: 9.675
RETENTIONINDEX: 1200.196
QUANTMASS: 170.2
PRECURSORTYPE: [M]+.
IONMODE: Positive
SPECTRUMTYPE: Centroid
FORMULA: C12H26
INCHIKEY: SNRUBQQJIBEYMU-UHFFFAOYSA-N
SMILES: CCCCCCCCCCCC
AUTHORS: Jefferson Pastuna 
COLLISIONENERGY: 70eV
INSTRUMENT: Shimadzu
INSTRUMENTTYPE: GC-EI-Q
IONIZATION: EI
LICENSE: NA
COMMENT: Semi-standard non-polar RI: 1200+/-0; RT in min.: 9.677+/-0.005
Num Peaks: 24
53.05	12892
54.1	11178
55.05	120899
56.1	144996
57.05	930299
58.05	39870
69.1	56235
70.1	115548
71.1	566297
72.1	30497
82.1	11916
83.1	32561
84.15	75490
85.1	336599
86.15	21797
97.15	14334
98.15	62173
99.15	68411
112.2	44886
113.2	46441
126.2	18704
127.2	29054
141.14999	13256
170.2	29585

NAME: Tridecane
SCANNUMBER: -1
RETENTIONTIME: 12.22
RETENTIONINDEX: 1300.198
QUANTMASS: 184.2
PRECURSORTYPE: [M]+.
IONMODE: Positive
SPECTRUMTYPE: Centroid
FORMULA: C13H28
INCHIKEY: IIYFAKIEWZDVMP-UHFFFAOYSA-N
SMILES: CCCCCCCCCCCCC
AUTHORS: Jefferson Pastuna 
COLLISIONENERGY: 70eV
INSTRUMENT: Shimadzu
INSTRUMENTTYPE: GC-EI-Q
IONIZATION: EI
LICENSE: NA
COMMENT: Semi-standard non-polar RI: 1300+/-0; RT in min.: 12.224+/-0.008
Num Peaks: 25
53.05	14110
54.1	13609
55.05	149718
56.1	160564
57.1	1088899
58.05	46810
69.1	70852
70.1	129830
71.1	716494
72.1	38700
82.1	17468
83.1	46341
84.1	83820
85.1	463844
86.1	29287
97.15	26624
98.15	67095
99.15	103646
112.2	53904
113.2	57234
126.15	31925
127.2	38369
140.2	13528
141.14999	20702
184.2	35901

NAME: Tetradecane
SCANNUMBER: -1
RETENTIONTIME: 14.745
RETENTIONINDEX: 1400
QUANTMASS: 198.25
PRECURSORTYPE: [M]+.
IONMODE: Positive
SPECTRUMTYPE: Centroid
FORMULA: C14H30
INCHIKEY: BGHCVCJVXZWKCC-UHFFFAOYSA-N
SMILES: CCCCCCCCCCCCCC
AUTHORS: Jefferson Pastuna 
COLLISIONENERGY: 70eV
INSTRUMENT: Shimadzu
INSTRUMENTTYPE: GC-EI-Q
IONIZATION: EI
LICENSE: NA
COMMENT: Semi-standard non-polar RI: 1400+/-0; RT in min.: 12.224+/-0.008
Num Peaks: 29
53.05	14535
54.1	15902
55.05	169361
56.1	168210
57.1	1189248
58.1	50756
67.05	13075
68.1	11953
69.1	83925
70.1	137608
71.1	819865
72.1	44289
82.1	22910
83.1	58896
84.15	89470
85.1	562119
86.15	35796
97.15	38811
98.15	70070
99.15	148489
111.2	16833
112.2	57905
113.2	76625
126.2	37572
127.2	44037
140.14999	22451
141.2	31429
155.2	18007
198.25	37173

NAME: Pentadecane
SCANNUMBER: -1
RETENTIONTIME: 17.2
RETENTIONINDEX: 1499.959
QUANTMASS: 212.25
PRECURSORTYPE: [M]+.
IONMODE: Positive
SPECTRUMTYPE: Centroid
FORMULA: C15H32
INCHIKEY: YCOZIPAWZNQLMR-UHFFFAOYSA-N
SMILES: CCCCCCCCCCCCCCC
AUTHORS: Jefferson Pastuna 
COLLISIONENERGY: 70eV
INSTRUMENT: Shimadzu
INSTRUMENTTYPE: GC-EI-Q
IONIZATION: EI
LICENSE: NA
COMMENT: Semi-standard non-polar RI: 1500+/-0; RT in min.: 17.209+/-0.006
Num Peaks: 32
53.05	24190
54.1	29300
55.05	321616
56.1	300393
57.1	2214587
58.1	95424
67.05	26657
68.1	24996
69.1	162056
70.1	244394
71.1	1533216
72.1	83539
82.1	47794
83.1	123583
84.15	165840
85.1	1126065
86.15	74087
97.15	88772
98.15	124729
99.15	340631
100.15	25643
111.2	44528
112.2	105222
113.2	183270
126.15	71814
127.2	93811
140.14999	47610
141.14999	62076
154.2	30841
155.2	46731
169.2	28568
212.25	73241

NAME: Hexadecane
SCANNUMBER: -1
RETENTIONTIME: 19.54
RETENTIONINDEX: 1599.744
QUANTMASS: 226.25
PRECURSORTYPE: [M]+.
IONMODE: Positive
SPECTRUMTYPE: Centroid
FORMULA: C16H34
INCHIKEY: DCAYPVUWAIABOU-UHFFFAOYSA-N
SMILES: CCCCCCCCCCCCCCCC
AUTHORS: Jefferson Pastuna 
COLLISIONENERGY: 70eV
INSTRUMENT: Shimadzu
INSTRUMENTTYPE: GC-EI-Q
IONIZATION: EI
LICENSE: NA
COMMENT: Semi-standard non-polar RI: 1600+/-0; RT in min.: 19.550+/-0.006
Num Peaks: 35
53.05	12750
54.1	17097
55.05	186422
56.1	158542
57.1	1220517
58.1	52778
67.05	16379
68.1	15083
69.1	99266
70.1	134226
71.1	888990
72.1	48637
82.1	29974
83.1	77624
84.15	89977
85.15	656478
86.1	42057
96.15	15367
97.15	59580
98.15	67931
99.15	219395
100.15	16757
111.2	32127
112.2	57002
113.2	127413
126.15	40118
127.2	63630
140.14999	27464
141.2	37929
154.2	19209
155.2	27362
168.2	14498
169.2	22543
183.2	14736
226.25	37353

NAME: Heptadecane
SCANNUMBER: -1
RETENTIONTIME: 21.785
RETENTIONINDEX: 1700
QUANTMASS: 240.3
PRECURSORTYPE: [M]+.
IONMODE: Positive
SPECTRUMTYPE: Centroid
FORMULA: C17H36
INCHIKEY: NDJKXXJCMXVBJW-UHFFFAOYSA-N
SMILES: CCCCCCCCCCCCCCCCC
AUTHORS: Jefferson Pastuna 
COLLISIONENERGY: 70eV
INSTRUMENT: Shimadzu
INSTRUMENTTYPE: GC-EI-Q
IONIZATION: EI
LICENSE: NA
COMMENT: Semi-standard non-polar RI: 1700+/-0; RT in min.: 21.791+/-0.006
Num Peaks: 38
54.1	17087
55.05	193425
56.1	155813
57.1	1229000
58.1	52266
67.05	18013
68.1	16733
69.05	106143
70.1	132388
71.1	918045
72.1	49228
82.1	32438
83.1	87012
84.15	90882
85.1	685373
86.15	44110
96.15	18708
97.15	67174
98.15	66814
99.15	247239
100.15	18653
111.2	38269
112.2	56340
113.2	153348
114.2	13065
125.15	15582
126.15	39987
127.2	79464
140.2	28499
141.14999	45359
154.2	20902
155.2	29538
168.2	15557
169.2	24305
182.2	13762
183.2	21814
197.2	13500
240.3	35517

NAME: Octadecane
SCANNUMBER: -1
RETENTIONTIME: 23.92
RETENTIONINDEX: 1800
QUANTMASS: 254.3
PRECURSORTYPE: [M]+.
IONMODE: Positive
SPECTRUMTYPE: Centroid
FORMULA: C18H38
INCHIKEY: RZJRJXONCZWCBN-UHFFFAOYSA-N
SMILES: CCCCCCCCCCCCCCCCCC
AUTHORS: Jefferson Pastuna 
COLLISIONENERGY: 70eV
INSTRUMENT: Shimadzu
INSTRUMENTTYPE: GC-EI-Q
IONIZATION: EI
LICENSE: NA
COMMENT: Semi-standard non-polar RI: 1800+/-0; RT in min.: 23.927+/-0.005
Num Peaks: 39
54.1	17798
55.05	197747
56.1	150228
57.1	1220457
58.05	52204
67.05	18829
68.1	17712
69.1	111448
70.1	128950
71.1	919060
72.1	50175
82.1	35137
83.1	95321
84.15	89109
85.15	709292
86.1	45379
96.15	20486
97.15	77536
98.15	65181
99.15	266428
100.15	20387
111.15	44773
112.2	55971
113.2	173171
114.2	14599
125.15	19323
126.15	39690
127.2	93097
140.14999	28858
141.14999	54301
154.14999	21705
155.2	34781
168.2	17288
169.2	26408
182.2	14221
183.2	23486
197.25	20522
211.25	12647
254.3	32042

NAME: Nonadecane
SCANNUMBER: -1
RETENTIONTIME: 25.96
RETENTIONINDEX: 1900
QUANTMASS: 268.29999
PRECURSORTYPE: [M]+.
IONMODE: Positive
SPECTRUMTYPE: Centroid
FORMULA: C19H40
INCHIKEY: LQERIDTXQFOHKA-UHFFFAOYSA-N
SMILES: CCCCCCCCCCCCCCCCCCC
AUTHORS: Jefferson Pastuna 
COLLISIONENERGY: 70eV
INSTRUMENT: Shimadzu
INSTRUMENTTYPE: GC-EI-Q
IONIZATION: EI
LICENSE: NA
COMMENT: Semi-standard non-polar RI: 1900+/-0; RT in min.: 25.966+/-0.006
Num Peaks: 41
54.1	17539
55.05	200116
56.1	146945
57.1	1205762
58.1	50722
67.05	20181
68.05	18265
69.1	117070
70.1	126636
71.1	931170
72.1	49807
82.1	36708
83.1	102347
84.15	88407
85.15	719990
86.15	45669
96.15	23105
97.15	85865
98.15	64569
99.15	282818
100.15	21283
110.15	13699
111.15	51422
112.2	55517
113.2	189367
114.2	15949
125.15	23365
126.15	39445
127.15	106389
140.14999	29698
141.2	64787
154.2	21955
155.2	40848
168.2	17872
169.2	30175
182.2	15789
183.2	25182
196.25	13020
197.2	22214
211.25	19945
268.29999	29082

NAME: Eicosane
SCANNUMBER: -1
RETENTIONTIME: 28.21
RETENTIONINDEX: 2000
QUANTMASS: 282.35001
PRECURSORTYPE: [M]+.
IONMODE: Positive
SPECTRUMTYPE: Centroid
FORMULA: C20H42
INCHIKEY: CBFCDTFDPHXCNY-UHFFFAOYSA-N
SMILES: CCCCCCCCCCCCCCCCCCCC
AUTHORS: Jefferson Pastuna 
COLLISIONENERGY: 70eV
INSTRUMENT: Shimadzu
INSTRUMENTTYPE: GC-EI-Q
IONIZATION: EI
LICENSE: NA
COMMENT: Semi-standard non-polar RI: 2000+/-0; RT in min.: 28.220+/-0.008
Num Peaks: 43
54.05	14868
55.05	171194
56.1	119894
57.1	1008182
58.05	43324
67.05	17558
68.1	16593
69.1	104010
70.1	105128
71.1	790513
72.1	43858
82.1	33351
83.1	94237
84.15	74702
85.1	623584
86.15	40245
96.15	21750
97.15	79644
98.15	54244
99.15	254340
100.15	18888
110.15	13255
111.15	49150
112.2	46439
113.2	173497
114.2	14575
125.15	23098
126.2	33572
127.2	100802
140.14999	24972
141.14999	63350
154.2	19432
155.2	41085
168.2	15880
169.2	30439
182.2	14440
183.2	24463
196.25	12206
197.2	20492
210.25	10185
211.25	18187
225.25	15959
282.35001	22570

NAME: Heneicosane
SCANNUMBER: -1
RETENTIONTIME: 31.16
RETENTIONINDEX: 2099.831
QUANTMASS: 296.35001
PRECURSORTYPE: [M]+.
IONMODE: Positive
SPECTRUMTYPE: Centroid
FORMULA: C21H44
INCHIKEY: FNAZRRHPUDJQCJ-UHFFFAOYSA-N
SMILES: CCCCCCCCCCCCCCCCCCCCC
AUTHORS: Jefferson Pastuna 
COLLISIONENERGY: 70eV
INSTRUMENT: Shimadzu
INSTRUMENTTYPE: GC-EI-Q
IONIZATION: EI
LICENSE: NA
COMMENT: Semi-standard non-polar RI: 2100+/-0; RT in min.: 31.173+/-0.008
Num Peaks: 47
54.1	11106
55.05	130620
56.1	88449
57.1	752878
58.1	32609
67.05	13880
68.05	13176
69.1	82260
70.1	79178
71.1	606754
72.1	32570
81.1	7684
82.1	26604
83.1	75894
84.15	55549
85.1	478034
86.15	30234
96.15	18395
97.15	66029
98.15	40768
99.15	200424
100.15	15237
110.2	11245
111.15	41358
112.2	34858
113.2	139174
114.2	11893
125.15	19987
126.15	25008
127.2	82327
128.2	7904
139.14999	7753
140.14999	18814
141.14999	54102
154.2	14361
155.2	35870
168.2	12435
169.2	27012
182.2	11293
183.2	21404
196.25	9780
197.2	17351
210.25	8149
211.25	14711
225.25	12815
239.25	11772
296.35001	15279

NAME: Docosane
SCANNUMBER: -1
RETENTIONTIME: 35.17
RETENTIONINDEX: 2200
QUANTMASS: 310.35001
PRECURSORTYPE: [M]+.
IONMODE: Positive
SPECTRUMTYPE: Centroid
FORMULA: C22H46
INCHIKEY: HOWGUJZVBDQJKV-UHFFFAOYSA-N
SMILES: CCCCCCCCCCCCCCCCCCCCCC
AUTHORS: Jefferson Pastuna 
COLLISIONENERGY: 70eV
INSTRUMENT: Shimadzu
INSTRUMENTTYPE: GC-EI-Q
IONIZATION: EI
LICENSE: NA
COMMENT: Semi-standard non-polar RI: 2200+/-0; RT in min.: 35.188+/-0.015
Num Peaks: 43
54.1	8190
55.05	98423
56.1	63980
57.1	552106
58.1	14858
67.05	10633
68.1	10028
69.1	63754
70.1	58791
71.1	456836
72.1	19810
81.1	6139
82.1	21197
83.1	60325
84.15	38523
85.1	355856
86.1	16239
96.15	14443
97.15	54857
98.15	30033
99.15	155030
100.15	9151
110.15	9730
111.15	33523
112.2	25011
113.2	110454
114.2	5835
125.15	16993
126.15	15212
127.2	64739
139.14999	6519
140.2	12772
141.14999	40997
154.2	8912
155.2	25456
168.2	9173
169.2	20192
182.2	5720
183.2	17660
196.25	5969
197.2	9831
211.25	7012
225.25	6603

NAME: Tricosane
SCANNUMBER: -1
RETENTIONTIME: 39.195
RETENTIONINDEX: 2300
QUANTMASS: 324.39999
PRECURSORTYPE: [M]+.
IONMODE: Positive
SPECTRUMTYPE: Centroid
FORMULA: C23H48
INCHIKEY: FIGVVZUWCLSUEI-UHFFFAOYSA-N
SMILES: CCCCCCCCCCCCCCCCCCCCCCC
AUTHORS: Jefferson Pastuna 
COLLISIONENERGY: 70eV
INSTRUMENT: Shimadzu
INSTRUMENTTYPE: GC-EI-Q
IONIZATION: EI
LICENSE: NA
COMMENT: Semi-standard non-polar RI: 2300+/-0; RT in min.: 39.210+/-0.011
Num Peaks: 51
54.1	10730
55.05	127219
56.1	82165
57.05	725244
58.1	30699
67.05	14351
68.05	13572
69.1	86350
70.1	75340
71.1	590700
72.1	31911
81.1	8877
82.1	28334
83.1	84311
84.15	54094
85.1	473663
86.15	30636
96.15	20198
97.15	77193
98.15	39630
99.15	205898
100.15	15724
110.15	13250
111.2	48671
112.2	34150
113.2	146689
114.2	12704
124.15	7842
125.15	24500
126.2	24866
127.2	90191
128.2	8654
139.14999	9999
140.2	19269
141.2	60332
154.2	14542
155.2	42592
168.2	12654
169.2	33120
182.2	11648
183.2	27826
196.25	10449
197.2	22410
210.25	8948
211.25	18261
224.25	7931
225.25	14864
239.25	13041
253.3	11190
267.29999	9846
324.39999	12105

NAME: Tetracosane
SCANNUMBER: -1
RETENTIONTIME: 41.905
RETENTIONINDEX: 2400
QUANTMASS: 338.39999
PRECURSORTYPE: [M]+.
IONMODE: Positive
SPECTRUMTYPE: Centroid
FORMULA: C24H50
INCHIKEY: POOSGDOYLQNASK-UHFFFAOYSA-N
SMILES: CCCCCCCCCCCCCCCCCCCCCCCC
AUTHORS: Jefferson Pastuna 
COLLISIONENERGY: 70eV
INSTRUMENT: Shimadzu
INSTRUMENTTYPE: GC-EI-Q
IONIZATION: EI
LICENSE: NA
COMMENT: Semi-standard non-polar RI: 2400+/-0; RT in min.: 41.914+/-0.008
Num Peaks: 53
54.1	13425
55.05	161844
56.1	100797
57.1	901678
58.1	39093
67.05	18087
68.1	17681
69.1	110068
70.1	92724
71.1	734725
72.1	40162
81.1	12113
82.1	36733
83.1	110590
84.15	68107
85.15	604760
86.15	38856
96.15	26630
97.15	103094
98.15	49803
99.15	267579
100.15	19672
110.2	17766
111.15	66174
112.2	43849
113.2	192496
114.2	16705
124.15	10895
125.15	33537
126.2	31559
127.2	118425
128.2	11635
139.14999	13966
140.2	23800
141.2	81178
154.2	18728
155.2	58050
168.2	16387
169.2	45659
182.2	15460
183.2	39473
196.25	13615
197.25	31960
210.25	12140
211.25	26285
224.25	10608
225.25	21813
238.25	9186
239.25	17981
253.3	15403
267.29999	13981
281.29999	12552
338.39999	14801

NAME: Decane
SCANNUMBER: -1
RETENTIONTIME: 5.095
RETENTIONINDEX: 1000
QUANTMASS: 142.2
PRECURSORTYPE: [M]+.
IONMODE: Positive
SPECTRUMTYPE: Centroid
FORMULA: C10H22
INCHIKEY: DIOQZVSQGTUSAI-UHFFFAOYSA-N
SMILES: CCCCCCCCCC
AUTHORS: Jefferson Pastuna 
COLLISIONENERGY: 70eV
INSTRUMENT: Shimadzu
INSTRUMENTTYPE: GC-EI-Q
IONIZATION: EI
LICENSE: NA
COMMENT: Semi-standard non-polar RI: 1000+/-0; RT in min.: 5.098+/-0.004
Num Peaks: 19
53.05	6653
54.1	4453
55.05	53518
56.1	74075
57.05	414882
58.05	17743
69.1	20490
70.1	58799
71.1	171171
72.1	8425
83.15	6156
84.1	43889
85.1	118464
86.1	7808
98.15	27582
99.15	36633
112.2	10694
113.2	19332
142.2	15676

NAME: Undecane
SCANNUMBER: -1
RETENTIONTIME: 7.23
RETENTIONINDEX: 1100.204
QUANTMASS: 156.2
PRECURSORTYPE: [M]+.
IONMODE: Positive
SPECTRUMTYPE: Centroid
FORMULA: C11H24
INCHIKEY: RSJKGSCJYJTIGS-UHFFFAOYSA-N
SMILES: CCCCCCCCCCC
AUTHORS: Jefferson Pastuna 
COLLISIONENERGY: 70eV
INSTRUMENT: Shimadzu
INSTRUMENTTYPE: GC-EI-Q
IONIZATION: EI
LICENSE: NA
COMMENT: Semi-standard non-polar RI: 1100+/-0; RT in min.: 7.232+/-0.005
Num Peaks: 21
53.05	10368
54.1	7983
55.05	91073
56.1	118530
57.05	720927
58.1	31026
69.1	40753
70.1	93319
71.1	379373
72.1	20795
83.1	17976
84.15	63488
85.1	221201
86.15	14417
98.15	52547
99.15	49897
112.2	26518
113.2	37060
126.15	9397
127.2	17533
156.2	24162

NAME: Pentacosane
SCANNUMBER: -1
RETENTIONTIME: 44.02
RETENTIONINDEX: 2500
QUANTMASS: 352.39999
PRECURSORTYPE: [M]+.
IONMODE: Positive
SPECTRUMTYPE: Centroid
FORMULA: C25H52
INCHIKEY: YKNWIILGEFFOPE-UHFFFAOYSA-N
SMILES: CCCCCCCCCCCCCCCCCCCCCCCCC
AUTHORS: Jefferson Pastuna 
COLLISIONENERGY: 70eV
INSTRUMENT: Shimadzu
INSTRUMENTTYPE: GC-EI-Q
IONIZATION: EI
LICENSE: NA
COMMENT: Semi-standard non-polar RI: 2500+/-1; RT in min.: 44.032+/-0.008
Num Peaks: 55
54.1	13915
55.05	167941
56.1	104761
57.1	935660
58.1	40221
67.05	19481
68.1	19033
69.1	116627
70.1	96033
71.1	764081
72.1	41704
81.1	13102
82.1	40538
83.1	122140
84.15	70842
85.15	635659
86.15	41267
96.15	29528
97.15	113932
98.15	52567
99.15	284933
100.15	21862
110.15	19000
111.15	74290
112.2	45810
113.2	207091
114.2	18039
124.15	12416
125.15	38623
126.15	33265
127.2	128470
128.14999	12491
139.14999	16380
140.14999	25189
141.2	88539
142.2	9440
154.2	19512
155.2	63710
168.2	17173
169.2	51908
182.2	16102
183.2	44698
196.25	14721
197.25	37166
210.25	12861
211.25	30440
224.25	11201
225.25	25556
238.25	10451
239.25	21073
253.3	16900
267.29999	14748
281.29999	13248
295.35001	13295
352.39999	13646

NAME: Octacosane
SCANNUMBER: -1
RETENTIONTIME: 48.795
RETENTIONINDEX: 2799.929
QUANTMASS: 394.45001
PRECURSORTYPE: [M]+.
IONMODE: Positive
SPECTRUMTYPE: Centroid
FORMULA: C28H58
INCHIKEY: ZYURHZPYMFLWSH-UHFFFAOYSA-N
SMILES: CCCCCCCCCCCCCCCCCCCCCCCCCCCC
AUTHORS: Jefferson Pastuna 
COLLISIONENERGY: 70eV
INSTRUMENT: Shimadzu
INSTRUMENTTYPE: GC-EI-Q
IONIZATION: EI
LICENSE: NA
COMMENT: Semi-standard non-polar RI: 2500+/-1; RT in min.: 48.801+/-0.006
Num Peaks: 61
54.1	14655
55.05	182463
56.1	111413
57.1	1013505
58.1	44068
67.05	22246
68.1	22511
69.1	137792
70.1	104060
71.1	834429
72.1	45047
81.1	17347
82.1	49495
83.1	152703
84.15	79097
85.15	706757
86.15	45553
96.15	37099
97.15	149665
98.15	58942
99.15	331176
100.15	25594
110.2	24308
111.15	97781
112.2	51898
113.2	247346
114.2	21318
124.15	17146
125.15	51387
126.2	37207
127.2	155204
128.2	14545
138.14999	10886
139.14999	23834
140.14999	28288
141.14999	109461
142.2	11174
153.2	13687
154.2	22131
155.2	81878
168.2	19693
169.2	66120
182.2	18568
183.2	59474
196.25	17083
197.25	50953
210.25	15850
211.25	44700
224.25	13815
225.25	38516
238.3	12442
239.25	31795
252.3	10541
253.25	25028
267.29999	20765
281.29999	15816
295.35001	16721
309.35001	14608
323.39999	13511
337.39999	13035
394.45001	11556

NAME: Nonacosane
SCANNUMBER: -1
RETENTIONTIME: 50.1
RETENTIONINDEX: 2900.406
QUANTMASS: 408.5
PRECURSORTYPE: [M]+.
IONMODE: Positive
SPECTRUMTYPE: Centroid
FORMULA: C29H60
INCHIKEY: IGGUPRCHHJZPBS-UHFFFAOYSA-N
SMILES: CCCCCCCCCCCCCCCCCCCCCCCCCCCCC
AUTHORS: Jefferson Pastuna 
COLLISIONENERGY: 70eV
INSTRUMENT: Shimadzu
INSTRUMENTTYPE: GC-EI-Q
IONIZATION: EI
LICENSE: NA
COMMENT: Semi-standard non-polar RI: 2900+/-1; RT in min.: 50.102+/-0.007
Num Peaks: 62
54.1	14555
55.05	178967
56.1	107904
57.1	989967
58.1	40955
67.05	22529
68.1	22393
69.05	138376
70.1	101558
71.1	819233
72.1	44071
81.1	17698
82.1	50181
83.1	154418
84.15	76737
85.15	692384
86.15	43621
96.15	38803
97.15	154358
98.15	58434
99.15	331227
100.15	24075
110.2	25279
111.15	101649
112.2	50096
113.2	246144
114.2	20797
124.15	17859
125.15	54289
126.15	36701
127.2	153814
128.2	14239
138.14999	11403
139.14999	25678
140.2	27495
141.14999	108745
142.14999	11121
153.14999	14458
154.2	20689
155.2	79241
167.2	10111
168.2	18869
169.2	64981
182.2	17696
183.2	60018
196.2	15704
197.2	50336
210.25	14734
211.25	43653
224.25	13330
225.25	37771
238.3	11556
239.25	31452
252.3	10089
253.3	22678
267.29999	19726
281.25	13929
295.35001	14154
309.35001	12636
323.35001	11364
337.39999	11017
351.39999	10699

NAME: Triacontane
SCANNUMBER: -1
RETENTIONTIME: 51.325
RETENTIONINDEX: 3000
QUANTMASS: 422.5
PRECURSORTYPE: [M]+.
IONMODE: Positive
SPECTRUMTYPE: Centroid
FORMULA: C30H62
INCHIKEY: JXTPJDDICSTXJX-UHFFFAOYSA-N
SMILES: CCCCCCCCCCCCCCCCCCCCCCCCCCCCCC
AUTHORS: Jefferson Pastuna 
COLLISIONENERGY: 70eV
INSTRUMENT: Shimadzu
INSTRUMENTTYPE: GC-EI-Q
IONIZATION: EI
LICENSE: NA
COMMENT: Semi-standard non-polar RI: 3000+/-1; RT in min.: 51.328+/-0.006
Num Peaks: 51
54.1	24806
55.05	308279
56.1	187961
57.1	1720561
58.1	62183
67.05	38830
68.05	41628
69.05	247480
70.1	180388
71.1	1427554
72.1	62796
81.1	31877
82.1	91194
83.1	282749
84.15	131620
85.15	1192356
86.15	59691
96.15	68729
97.15	272702
98.15	90003
99.15	574885
100.15	35306
110.2	44915
111.15	178024
112.2	82172
113.2	420880
114.2	27532
124.15	31821
125.15	96504
126.15	57189
127.2	268330
128.2	21439
138.14999	19727
139.14999	41350
140.2	45524
141.14999	168653
153.14999	24473
154.2	34953
155.2	123172
168.2	30481
169.2	108040
182.2	24873
183.2	90750
196.25	21771
197.2	75541
210.25	17866
211.25	62304
225.25	50160
239.25	41916
253.25	26858
267.29999	20655

NAME: Hentriacontane
SCANNUMBER: -1
RETENTIONTIME: 52.475
RETENTIONINDEX: 3100
QUANTMASS: 436.5
PRECURSORTYPE: [M]+.
IONMODE: Positive
SPECTRUMTYPE: Centroid
FORMULA: C31H64
INCHIKEY: IUJAMGNYPWYUPM-UHFFFAOYSA-N
SMILES: CCCCCCCCCCCCCCCCCCCCCCCCCCCCCCC
AUTHORS: Jefferson Pastuna 
COLLISIONENERGY: 70eV
INSTRUMENT: Shimadzu
INSTRUMENTTYPE: GC-EI-Q
IONIZATION: EI
LICENSE: NA
COMMENT: Semi-standard non-polar RI: 3100+/-1; RT in min.: 52.479+/-0.005
Num Peaks: 66
54.1	24986
55.05	307675
56.1	188848
57.1	1726954
58.1	74496
67.05	39381
68.05	42448
69.05	252224
70.1	179817
71.1	1434565
72.1	78004
81.1	33311
82.1	95309
83.1	292411
84.15	141598
85.15	1242082
86.1	80931
96.15	72087
97.1	296573
98.15	106236
99.15	586730
100.15	44583
110.15	46494
111.15	195046
112.2	95165
113.2	449284
114.2	38800
124.15	34240
125.15	104491
126.15	67771
127.2	278913
128.2	26708
138.14999	21131
139.14999	49821
140.2	51392
141.14999	194701
142.14999	21122
153.14999	30383
154.2	41907
155.2	151576
167.2	21185
168.2	35813
169.2	125620
182.2	34357
183.2	114241
196.25	31802
197.2	98952
210.25	28974
211.25	90184
224.25	26300
225.25	78082
238.3	23659
239.3	68178
252.3	21791
253.25	52065
266.29999	18523
267.29999	46286
280.35001	17285
281.29999	31661
295.35001	36749
309.35001	32409
323.39999	27692
337.35001	25235
351.39999	23787
365.39999	22782
379.45001	21722

NAME: Dotriacontane
SCANNUMBER: -1
RETENTIONTIME: 53.635
RETENTIONINDEX: 3200
QUANTMASS: 450.5
PRECURSORTYPE: [M]+.
IONMODE: Positive
SPECTRUMTYPE: Centroid
FORMULA: C32H66
INCHIKEY: QHMGJGNTMQDRQA-UHFFFAOYSA-N
SMILES: CCCCCCCCCCCCCCCCCCCCCCCCCCCCCCCC
AUTHORS: Jefferson Pastuna 
COLLISIONENERGY: 70eV
INSTRUMENT: Shimadzu
INSTRUMENTTYPE: GC-EI-Q
IONIZATION: EI
LICENSE: NA
COMMENT: Semi-standard non-polar RI: 3200+/-1; RT in min.: 53.638+/-0.006
Num Peaks: 67
54.1	22282
55.05	271285
56.1	168091
57.1	1530595
58.1	64913
67.05	35095
68.1	38690
69.05	227141
70.1	159447
71.1	1270988
72.1	68001
81.1	30871
82.1	86602
83.1	268327
84.15	124704
85.15	1098630
86.15	70070
96.15	66027
97.15	273617
98.15	93693
99.15	524912
100.15	39882
110.15	42860
111.15	182189
112.2	85641
113.2	402992
114.2	33950
124.15	31369
125.15	97321
126.15	59416
127.2	250381
128.2	24009
138.14999	20170
139.14999	47342
140.2	45252
141.14999	176734
142.14999	18495
153.14999	28688
154.2	37097
155.2	139021
167.2	20227
168.2	32336
169.2	114165
181.2	15679
182.2	30845
183.2	103866
196.25	28179
197.2	91952
210.25	25179
211.25	81890
224.25	23275
225.25	71876
238.25	20797
239.25	62840
252.3	18754
253.25	46499
266.29999	15633
267.29999	42782
281.25	26701
295.35001	34114
309.35001	29150
323.35001	25069
337.39999	22136
351.39999	20378
365.39999	18924
379.45001	18194
393.45001	17519

NAME: Tritriacontane
SCANNUMBER: -1
RETENTIONTIME: 54.945
RETENTIONINDEX: 3300
QUANTMASS: 464.54999
PRECURSORTYPE: [M]+.
IONMODE: Positive
SPECTRUMTYPE: Centroid
FORMULA: C33H68
INCHIKEY: SUJUOAZFECLBOA-UHFFFAOYSA-N
SMILES: CCCCCCCCCCCCCCCCCCCCCCCCCCCCCCCCC
AUTHORS: Jefferson Pastuna 
COLLISIONENERGY: 70eV
INSTRUMENT: Shimadzu
INSTRUMENTTYPE: GC-EI-Q
IONIZATION: EI
LICENSE: NA
COMMENT: Semi-standard non-polar RI: 3299+/-1; RT in min.: 54.952+/-0.009
Num Peaks: 60
54.1	19215
55.05	236335
56.1	144722
57.1	1319485
58.1	47495
67.05	29089
68.05	33542
69.05	196264
70.1	138214
71.1	1067901
72.1	47765
81.1	25542
82.1	74572
83.1	237936
84.15	106980
85.15	929740
86.15	50565
96.15	56065
97.15	242250
98.15	80229
99.15	436256
100.15	25192
110.2	34769
111.15	154622
112.2	67670
113.2	335590
114.2	22099
124.15	27220
125.15	79805
126.2	51163
127.2	200895
128.2	16833
138.14999	15669
139.14999	39189
140.2	37941
141.2	124452
153.14999	19817
154.2	29829
155.2	103310
167.2	15744
168.2	24823
169.2	83981
182.2	23746
183.2	78290
196.25	21831
197.2	69656
210.25	20003
211.25	59196
224.25	18902
225.25	53522
238.3	15924
239.3	47464
252.35001	14203
253.25	37322
267.29999	33594
281.25	20911
295.35001	23907
309.35001	22663
323.39999	16417
337.39999	13581

NAME: Hexacosane
SCANNUMBER: -1
RETENTIONTIME: 45.81
RETENTIONINDEX: 2599.944
QUANTMASS: 366.45001
PRECURSORTYPE: [M]+.
IONMODE: Positive
SPECTRUMTYPE: Centroid
FORMULA: C26H54
INCHIKEY: HMSWAIKSFDFLKN-UHFFFAOYSA-N
SMILES: CCCCCCCCCCCCCCCCCCCCCCCCCC
AUTHORS: Jefferson Pastuna 
COLLISIONENERGY: 70eV
INSTRUMENT: Shimadzu
INSTRUMENTTYPE: GC-EI-Q
IONIZATION: EI
LICENSE: NA
COMMENT: Semi-standard non-polar RI: 2600+/-0; RT in min.: 45.816+/-0.006
Num Peaks: 57
54.1	15126
55.05	184768
56.1	113316
57.1	1029326
58.1	44130
67.05	21314
68.1	21568
69.1	132910
70.1	105812
71.1	841905
72.1	45977
81.1	15762
82.1	46508
83.1	140702
84.15	79257
85.15	703404
86.15	44815
96.15	33869
97.15	134415
98.15	58353
99.15	319195
100.15	23736
110.2	22152
111.15	86071
112.2	51321
113.2	235471
114.2	19853
124.15	14415
125.15	45740
126.2	36109
127.2	147007
128.2	13732
139.14999	20275
140.2	27306
141.14999	101367
142.14999	10713
153.14999	10919
154.2	21417
155.2	73470
168.2	19238
169.2	60107
182.2	17957
183.2	52746
196.25	16398
197.2	44764
210.25	14474
211.25	37529
224.25	13062
225.25	31648
238.25	11604
239.25	26778
253.3	21073
267.29999	17396
281.29999	15114
295.35001	15106
309.35001	13981
366.45001	14184

NAME: Heptacosane
SCANNUMBER: -1
RETENTIONTIME: 47.375
RETENTIONINDEX: 2700
QUANTMASS: 380.45001
PRECURSORTYPE: [M]+.
IONMODE: Positive
SPECTRUMTYPE: Centroid
FORMULA: C27H56
INCHIKEY: BJQWYEJQWHSSCJ-UHFFFAOYSA-N
SMILES: CCCCCCCCCCCCCCCCCCCCCCCCCCC
AUTHORS: Jefferson Pastuna 
COLLISIONENERGY: 70eV
INSTRUMENT: Shimadzu
INSTRUMENTTYPE: GC-EI-Q
IONIZATION: EI
LICENSE: NA
COMMENT: Semi-standard non-polar RI: 2700+/-1; RT in min.: 47.384+/-0.006
Num Peaks: 59
54.1	15033
55.05	183715
56.1	112871
57.1	1016307
58.1	44132
67.05	21737
68.1	22090
69.05	134758
70.1	103667
71.1	837819
72.1	45302
81.1	16072
82.1	47627
83.1	146435
84.15	79118
85.15	701452
86.15	45779
96.15	36016
97.15	141567
98.15	58622
99.15	323585
100.15	24628
110.15	23603
111.15	92204
112.2	51495
113.2	242382
114.2	20829
124.2	15577
125.15	48656
126.2	37653
127.2	150933
128.2	14544
139.14999	21694
140.2	27790
141.2	104442
142.14999	11046
153.2	12273
154.2	22018
155.2	76745
168.2	19628
169.2	63860
182.25	18056
183.2	56031
196.25	16674
197.25	48037
210.25	14983
211.25	41399
224.25	13528
225.25	35097
238.3	11992
239.3	29252
252.3	10308
253.25	22827
267.29999	19260
281.29999	15362
295.35001	15415
309.35001	14105
323.39999	13107
380.45001	12430

NAME: Theobromine
SCANNUMBER: -1
RETENTIONTIME: 25.485
RETENTIONINDEX: 1876.188
QUANTMASS: 180.05
PRECURSORTYPE: [M]+.
IONMODE: Positive
SPECTRUMTYPE: Centroid
FORMULA: C7H8N4O2
INCHIKEY: YAPQBXQYLJRXSA-UHFFFAOYSA-N
SMILES: CN1C=NC2=C1C(=O)NC(=O)N2C
AUTHORS: Jefferson Pastuna 
COLLISIONENERGY: 70eV
INSTRUMENT: Shimadzu
INSTRUMENTTYPE: GC-EI-Q
IONIZATION: EI
LICENSE: NA
COMMENT: 1 ppm of concentration; Semi-standard non-polar RI: 1877+/-3; RT in min.: 25.500+/-0.044
Num Peaks: 35
52	151
53	234
54.05	226
55.05	1058
56.1	200
57.05	378
66	165
67	2317
68	303
70.05	237
81.05	420
82.05	2075
91	66
94.05	147
95.1	81
97.1	264
98.1	119
107.1	93
108.15	265
109.15	2128
110.1	376
122.1	65
123.05	382
124.1	74
136.14999	204
137.10001	1102
138.10001	118
149	222
151	87
179.10001	597
180.05	5691
181.05	534
182	65
207	125
281	62

NAME: Theobromine
SCANNUMBER: -1
RETENTIONTIME: 25.465
RETENTIONINDEX: 1875
QUANTMASS: 180.10001
PRECURSORTYPE: [M]+.
IONMODE: Positive
SPECTRUMTYPE: Centroid
FORMULA: C7H8N4O2
INCHIKEY: YAPQBXQYLJRXSA-UHFFFAOYSA-N
SMILES: CN1C=NC2=C1C(=O)NC(=O)N2C
AUTHORS: Jefferson Pastuna 
COLLISIONENERGY: 70eV
INSTRUMENT: Shimadzu
INSTRUMENTTYPE: GC-EI-Q
IONIZATION: EI
LICENSE: NA
COMMENT: 5 ppm of concentration; Semi-standard non-polar RI: 1877+/-3; RT in min.: 25.500+/-0.044
Num Peaks: 74
50	47
53.05	42
55.05	383
56.1	84
57.1	139
58.1	26
60.1	24
65	19
66	100
67.05	316
68.05	89
71.1	26
73.1	57
74.1	109
76	39
78	24
80.05	18
81.1	103
82.1	210
83.1	53
87.1	72
88.1	37
91.1	79
93.1	38
94.1	78
95.1	23
97.15	53
98.1	58
99.1	36
101.1	27
104.1	82
107.1	34
108.15	162
109.1	388
110.1	88
119.1	28
120.1	14
121.1	28
122.1	36
126.1	14
129.10001	35
135.10001	80
136.10001	84
137.05	272
138.10001	46
139.10001	13
140.10001	20
143.10001	45
148	14
149.05	937
150	112
151	46
152	30
161	27
163	20
165	47
167	49
168	18
179.10001	84
180.10001	1215
181.05	243
182	39
191	55
205	37
207.05	155
213	16
223	75
240	18
252	14
253	14
266	24
327	26
452	24
461	26

NAME: Theobromine
SCANNUMBER: -1
RETENTIONTIME: 25.55
RETENTIONINDEX: 1879.843
QUANTMASS: 180.05
PRECURSORTYPE: [M]+.
IONMODE: Positive
SPECTRUMTYPE: Centroid
FORMULA: C7H8N4O2
INCHIKEY: YAPQBXQYLJRXSA-UHFFFAOYSA-N
SMILES: CN1C=NC2=C1C(=O)NC(=O)N2C
AUTHORS: Jefferson Pastuna 
COLLISIONENERGY: 70eV
INSTRUMENT: Shimadzu
INSTRUMENTTYPE: GC-EI-Q
IONIZATION: EI
LICENSE: NA
COMMENT: 8 ppm of concentration; Semi-standard non-polar RI: 1877+/-3; RT in min.: 25.500+/-0.044
Num Peaks: 28
51.05	382
52	753
53.05	1358
54.05	1666
55.05	13000
56.1	722
66.05	1532
67.05	12160
68.05	1628
69.05	518
70.05	2966
81.05	709
82.1	10736
83.1	978
84.15	396
94.05	1319
105.1	450
108.1	1460
109.1	10013
110.1	1505
111.1	1184
123.1	336
136.10001	1372
137.10001	6129
138.05	435
151.10001	676
180.05	31722
181.05	2854

NAME: Theophylline
SCANNUMBER: -1
RETENTIONTIME: 28.145
RETENTIONINDEX: 1996.408
QUANTMASS: 180.10001
PRECURSORTYPE: [M]+.
IONMODE: Positive
SPECTRUMTYPE: Centroid
FORMULA: C7H8N4O2
INCHIKEY: ZFXYFBGIUFBOJW-UHFFFAOYSA-N
SMILES: CN1C2=C(C(=O)N(C1=O)C)NC=N2
AUTHORS: Jefferson Pastuna 
COLLISIONENERGY: 70eV
INSTRUMENT: Shimadzu
INSTRUMENTTYPE: GC-EI-Q
IONIZATION: EI
LICENSE: NA
COMMENT: 1 ppm of concentration; Semi-standard non-polar RI: 1999+/-2; RT in min.: 28.193+/-0.042
Num Peaks: 25
53	685
54	105
55.95	105
57.9	44
65.9	74
67.05	310
68.05	2003
69	155
70	94
77	51
81	42
94.1	350
95.1	2364
96.1	417
108.1	61
122.15	215
123.05	774
124.1	174
135.10001	49
151.05	273
152.10001	102
179.10001	48
180.10001	3886
181.10001	372
208	53

NAME: Theophylline
SCANNUMBER: -1
RETENTIONTIME: 28.215
RETENTIONINDEX: 1999.335
QUANTMASS: 180.10001
PRECURSORTYPE: [M]+.
IONMODE: Positive
SPECTRUMTYPE: Centroid
FORMULA: C7H8N4O2
INCHIKEY: ZFXYFBGIUFBOJW-UHFFFAOYSA-N
SMILES: CN1C2=C(C(=O)N(C1=O)C)NC=N2
AUTHORS: Jefferson Pastuna 
COLLISIONENERGY: 70eV
INSTRUMENT: Shimadzu
INSTRUMENTTYPE: GC-EI-Q
IONIZATION: EI
LICENSE: NA
COMMENT: 5 ppm of concentration; Semi-standard non-polar RI: 1999+/-2; RT in min.: 28.193+/-0.042
Num Peaks: 26
53	5121
54	726
55.05	400
56	873
57	461
58.05	410
66.05	629
67.05	2473
68.05	14132
69.05	1341
70	707
81	587
94.1	2109
95.1	18348
96.1	2988
97.1	314
108.1	432
122.1	1596
123.05	5566
124.05	1290
136.05	403
151.10001	2210
152	691
179.14999	580
180.10001	28646
181.05	2552

NAME: Theophylline
SCANNUMBER: -1
RETENTIONTIME: 28.22
RETENTIONINDEX: 2000.338
QUANTMASS: 180.05
PRECURSORTYPE: [M]+.
IONMODE: Positive
SPECTRUMTYPE: Centroid
FORMULA: C7H8N4O2
INCHIKEY: ZFXYFBGIUFBOJW-UHFFFAOYSA-N
SMILES: CN1C2=C(C(=O)N(C1=O)C)NC=N2
AUTHORS: Jefferson Pastuna 
COLLISIONENERGY: 70eV
INSTRUMENT: Shimadzu
INSTRUMENTTYPE: GC-EI-Q
IONIZATION: EI
LICENSE: NA
COMMENT: 8 ppm of concentration; Semi-standard non-polar RI: 1999+/-2; RT in min.: 28.193+/-0.042
Num Peaks: 26
53	4438
54	634
55	323
56.05	695
57.05	277
58	299
66	561
67.05	1949
68.05	11996
69.05	1156
70	626
81	474
94.1	1797
95.1	14917
96.1	2535
97.1	280
108	320
122.1	1330
123.05	4355
124.1	1144
136.10001	283
151.05	1694
152	624
179.14999	384
180.05	23008
181.05	2142

NAME: Caffeine
SCANNUMBER: -1
RETENTIONTIME: 25.115
RETENTIONINDEX: 1858.06
QUANTMASS: 194.10001
PRECURSORTYPE: [M]+.
IONMODE: Positive
SPECTRUMTYPE: Centroid
FORMULA: C8H10N4O2
INCHIKEY: RYYVLZVUVIJVGH-UHFFFAOYSA-N
SMILES: CN1C=NC2=C1C(=O)N(C(=O)N2C)C
AUTHORS: Jefferson Pastuna 
COLLISIONENERGY: 70eV
INSTRUMENT: Shimadzu
INSTRUMENTTYPE: GC-EI-Q
IONIZATION: EI
LICENSE: NA
COMMENT: 1 ppm of concentration; Semi-standard non-polar RI: 1858+/-0; RT in min.: 25.112+/-0.006
Num Peaks: 27
52	597
53.05	1084
54.05	1673
55.05	13698
56.05	1664
66.05	1187
67.05	10526
68	1310
69.05	409
70.05	853
80.05	524
81.1	2416
82.1	11421
83.2	1324
94	1431
97.05	797
108.15	1580
109.1	22736
110.1	2738
111.1	406
136.10001	1469
137.05	2660
138.10001	757
165.05	1765
193.10001	7808
194.10001	38548
195.10001	4105

NAME: Caffeine
SCANNUMBER: -1
RETENTIONTIME: 25.115
RETENTIONINDEX: 1857.843
QUANTMASS: 194.10001
PRECURSORTYPE: [M]+.
IONMODE: Positive
SPECTRUMTYPE: Centroid
FORMULA: C8H10N4O2
INCHIKEY: RYYVLZVUVIJVGH-UHFFFAOYSA-N
SMILES: CN1C=NC2=C1C(=O)N(C(=O)N2C)C
AUTHORS: Jefferson Pastuna 
COLLISIONENERGY: 70eV
INSTRUMENT: Shimadzu
INSTRUMENTTYPE: GC-EI-Q
IONIZATION: EI
LICENSE: NA
COMMENT: 5 ppm of concentration; Semi-standard non-polar RI: 1858+/-0; RT in min.: 25.112+/-0.006
Num Peaks: 28
52	2986
53.05	5069
54.05	7544
55.05	65095
56.05	7319
66.05	5107
67.05	48923
68.05	6229
69.05	2325
70	4112
80.05	2572
81.05	11035
82.1	52793
83.15	6702
94.05	6475
97.1	3662
108.15	6768
109.1	104292
110.15	12759
122.1	1870
136.05	6604
137.10001	12922
138.05	3441
165.10001	7923
166.10001	1888
193.10001	35719
194.10001	183489
195.10001	18342

NAME: Caffeine
SCANNUMBER: -1
RETENTIONTIME: 25.105
RETENTIONINDEX: 1857.964
QUANTMASS: 194.10001
PRECURSORTYPE: [M]+.
IONMODE: Positive
SPECTRUMTYPE: Centroid
FORMULA: C8H10N4O2
INCHIKEY: RYYVLZVUVIJVGH-UHFFFAOYSA-N
SMILES: CN1C=NC2=C1C(=O)N(C(=O)N2C)C
AUTHORS: Jefferson Pastuna 
COLLISIONENERGY: 70eV
INSTRUMENT: Shimadzu
INSTRUMENTTYPE: GC-EI-Q
IONIZATION: EI
LICENSE: NA
COMMENT: 8 ppm of concentration; Semi-standard non-polar RI: 1858+/-0; RT in min.: 25.112+/-0.006
Num Peaks: 28
52	4654
53	7913
54.05	11331
55.05	98310
56	11375
66.05	7764
67.05	72727
68.05	9289
69.05	3531
70	6475
80.05	3817
81.05	16280
82.1	79916
83.15	9877
94.05	9625
97.1	5726
108.15	10760
109.1	157483
110.1	19586
122.1	3090
136.05	9603
137.05	19638
138.05	5258
165.05	12498
166.10001	2804
193.10001	52318
194.10001	273791
195.05	28015

NAME: Atropine
SCANNUMBER: -1
RETENTIONTIME: 36.66
RETENTIONINDEX: 2236.443
QUANTMASS: 289
PRECURSORTYPE: [M]+.
IONMODE: Positive
SPECTRUMTYPE: Centroid
FORMULA: C17H23NO3
INCHIKEY: RKUNBYITZUJHSG-PJPHBNEVSA-N
SMILES: CN1[C@@H]2CC[C@H]1CC(C2)OC(=O)C(CO)C3=CC=CC=C3
AUTHORS: Jefferson Pastuna 
COLLISIONENERGY: 70eV
INSTRUMENT: Shimadzu
INSTRUMENTTYPE: GC-EI-Q
IONIZATION: EI
LICENSE: NA
COMMENT: 1 ppm of concentration; Semi-standard non-polar RI: 2236+/-0; RT in min.: 36.645+/-0.013
Num Peaks: 34
55	46
56	60
57	25
65	64
67.1	296
68.1	94
70.1	51
77.1	92
79.1	69
80.1	38
81.1	89
82.1	691
83.1	596
84.1	75
89.1	23
90.1	31
91.1	135
93.1	67
94.15	541
95.2	256
96.15	293
97.1	54
103.1	111
104.1	38
108.1	38
118.1	24
121.1	52
122.1	46
123.1	128
124.15	2252
125.1	208
140.10001	159
289	178
290	49

NAME: Atropine
SCANNUMBER: -1
RETENTIONTIME: 36.64
RETENTIONINDEX: 2235.616
QUANTMASS: 289.20001
PRECURSORTYPE: [M]+.
IONMODE: Positive
SPECTRUMTYPE: Centroid
FORMULA: C17H23NO3
INCHIKEY: RKUNBYITZUJHSG-PJPHBNEVSA-N
SMILES: CN1[C@@H]2CC[C@H]1CC(C2)OC(=O)C(CO)C3=CC=CC=C3
AUTHORS: Jefferson Pastuna 
COLLISIONENERGY: 70eV
INSTRUMENT: Shimadzu
INSTRUMENTTYPE: GC-EI-Q
IONIZATION: EI
LICENSE: NA
COMMENT: 5 ppm of concentration; Semi-standard non-polar RI: 2236+/-0; RT in min.: 36.645+/-0.013
Num Peaks: 27
53.05	411
67.05	2804
68.05	1402
70.1	738
77	983
78.1	653
79.05	869
80.05	605
81.05	1567
82.1	9123
83.1	8304
84.1	1306
91.1	816
93.1	884
94.1	7603
95.1	2910
96.1	3197
98.15	525
103.1	1661
104.1	482
121.1	775
124.15	40379
125.15	3813
140.10001	2832
272.20001	604
289.20001	4677
290.14999	914

NAME: Atropine
SCANNUMBER: -1
RETENTIONTIME: 36.635
RETENTIONINDEX: 2236.352
QUANTMASS: 289.14999
PRECURSORTYPE: [M]+.
IONMODE: Positive
SPECTRUMTYPE: Centroid
FORMULA: C17H23NO3
INCHIKEY: RKUNBYITZUJHSG-PJPHBNEVSA-N
SMILES: CN1[C@@H]2CC[C@H]1CC(C2)OC(=O)C(CO)C3=CC=CC=C3
AUTHORS: Jefferson Pastuna 
COLLISIONENERGY: 70eV
INSTRUMENT: Shimadzu
INSTRUMENTTYPE: GC-EI-Q
IONIZATION: EI
LICENSE: NA
COMMENT: 8 ppm of concentration; Semi-standard non-polar RI: 2236+/-0; RT in min.: 36.645+/-0.013
Num Peaks: 37
54	468
56.05	504
57.05	843
65.05	999
67.05	5248
68.1	965
70.05	823
77.05	1104
78.1	632
79.1	1156
80.1	431
81.1	1695
82.1	10732
83.1	11695
84.1	1245
89.05	621
90.1	689
91.1	1677
93.15	486
94.1	5611
95.1	3403
96.1	2468
97.1	837
98.15	449
103.15	2263
104.1	418
108.15	631
118.1	500
121.15	783
122.15	472
123.15	1668
124.15	39925
140.10001	1974
271.14999	409
272.14999	657
289.14999	4272
290.20001	944

NAME: Harmaline
SCANNUMBER: -1
RETENTIONTIME: 36.32
RETENTIONINDEX: 2228.075
QUANTMASS: 214.10001
PRECURSORTYPE: [M]+.
IONMODE: Positive
SPECTRUMTYPE: Centroid
FORMULA: C13H14N2O
INCHIKEY: RERZNCLIYCABFS-UHFFFAOYSA-N
SMILES: CC1=NCCC2=C1NC3=C2C=CC(=C3)OC
AUTHORS: Jefferson Pastuna 
COLLISIONENERGY: 70eV
INSTRUMENT: Shimadzu
INSTRUMENTTYPE: GC-EI-Q
IONIZATION: EI
LICENSE: NA
COMMENT: 8 ppm of concentration; Semi-standard non-polar RI: 2228+/-0; RT in min.: 36.303+/-0.016
Num Peaks: 62
51.05	1647
54.05	916
62	907
63	2723
64	875
64.95	978
75.05	1685
76.05	1607
77.1	3851
78.05	1420
85.1	2876
88.1	1002
89.1	2756
90.1	1201
91.1	3156
92.05	1026
99.65	2243
101.1	1752
102.1	2229
103.1	2057
106.15	1082
107.05	3890
113.1	909
114.1	1714
115.1	5903
116.1	2643
117.1	1775
127.1	1895
128.10001	2459
129.05	1218
130.10001	2661
140.10001	1518
141.10001	1812
142.05	3639
143.10001	4495
144.10001	4930
154.10001	1757
155.10001	2575
156.10001	1622
158.05	1431
168.10001	1176
169.10001	6980
170.10001	14186
171.10001	6649
172.10001	6376
173.10001	4064
174.10001	908
182.10001	1494
183.10001	1432
184.10001	1772
185.10001	2359
186.10001	6323
187.10001	2445
197.14999	2336
198.10001	23257
199.10001	11199
200.05	1423
212.14999	6287
213.10001	86668
214.10001	82735
215.10001	11676
216.10001	894

NAME: Harmaline
SCANNUMBER: -1
RETENTIONTIME: 36.29
RETENTIONINDEX: 2227.363
QUANTMASS: 214.10001
PRECURSORTYPE: [M]+.
IONMODE: Positive
SPECTRUMTYPE: Centroid
FORMULA: C13H14N2O
INCHIKEY: RERZNCLIYCABFS-UHFFFAOYSA-N
SMILES: CC1=NCCC2=C1NC3=C2C=CC(=C3)OC
AUTHORS: Jefferson Pastuna 
COLLISIONENERGY: 70eV
INSTRUMENT: Shimadzu
INSTRUMENTTYPE: GC-EI-Q
IONIZATION: EI
LICENSE: NA
COMMENT: 1 ppm of concentration; Semi-standard non-polar RI: 2228+/-0; RT in min.: 36.303+/-0.016
Num Peaks: 58
50	87
51	104
53	55
54	69
63	53
65	46
70	54
71	62
72	48
74	89
75	119
77.1	61
78.1	77
84.1	49
88	60
89	167
91	161
99	59
100	56
101	55
102	77
107	192
108	52
114	106
116.1	171
117.1	137
126.1	53
129.10001	96
130.10001	202
131.10001	103
140.10001	121
143.10001	292
144.10001	55
153.10001	51
154.10001	100
156.10001	108
157.10001	56
158.10001	108
168.10001	85
169.05	457
170.10001	937
172.10001	220
174.10001	53
183.10001	104
186.10001	293
187.10001	146
191.10001	46
197.10001	127
198.10001	1278
199.05	328
211	49
212.14999	422
213.10001	874
214.10001	4507
215.10001	475
216.10001	52
219.10001	52
341.10001	62

NAME: Harmaline
SCANNUMBER: -1
RETENTIONTIME: 36.29
RETENTIONINDEX: 2227.826
QUANTMASS: 214.10001
PRECURSORTYPE: [M]+.
IONMODE: Positive
SPECTRUMTYPE: Centroid
FORMULA: C13H14N2O
INCHIKEY: RERZNCLIYCABFS-UHFFFAOYSA-N
SMILES: CC1=NCCC2=C1NC3=C2C=CC(=C3)OC
AUTHORS: Jefferson Pastuna 
COLLISIONENERGY: 70eV
INSTRUMENT: Shimadzu
INSTRUMENTTYPE: GC-EI-Q
IONIZATION: EI
LICENSE: NA
COMMENT: 8 ppm of concentration; Semi-standard non-polar RI: 2228+/-0; RT in min.: 36.303+/-0.016
Num Peaks: 60
51	1095
63	1608
64.05	602
65.05	656
75.05	1075
76.1	1032
77.05	2558
78	1016
85.1	1858
88.05	770
89.05	1891
90.15	776
91.1	2130
92.05	651
99.55	1363
100.1	928
101.1	1168
102.1	1375
103.1	1309
106.15	609
107.1	1091
113.05	620
115.1	3713
116.1	1709
117.1	1161
127.05	1133
128.10001	1614
129.10001	886
130.10001	1818
140.05	975
141.10001	1074
142.05	2367
143.10001	2822
144.10001	3246
145.10001	562
154.05	1241
155.05	1689
156.10001	933
158.05	694
168.10001	631
169.10001	4027
170.10001	9170
171.10001	4375
172.10001	4282
173.10001	1910
174.10001	576
182.05	801
183.10001	852
184.10001	1139
185.14999	1474
186.10001	4140
187.10001	1452
197.14999	1392
198.10001	15207
199.10001	7433
212.14999	3416
213.10001	54217
214.10001	51790
215.10001	7260
216.05	603

NAME: Linalool
SCANNUMBER: -1
RETENTIONTIME: 7.305
RETENTIONINDEX: 1103.068
QUANTMASS: 154.10001
PRECURSORTYPE: [M]+.
IONMODE: Positive
SPECTRUMTYPE: Centroid
FORMULA: C10H18O
INCHIKEY: CDOSHBSSFJOMGT-UHFFFAOYSA-N
SMILES: CC(=CCCC(C)(C=C)O)C
AUTHORS: Jefferson Pastuna 
COLLISIONENERGY: 70eV
INSTRUMENT: Shimadzu
INSTRUMENTTYPE: GC-EI-Q
IONIZATION: EI
LICENSE: NA
COMMENT: 1 ppm of concentration; Semi-standard non-polar RI: 1103+/-0; RT in min.: 7.308+/-0.006
Num Peaks: 46
50	325
51	964
52.05	327
53.05	2933
54.05	526
55.05	14482
56.05	2221
57.05	1019
58.05	574
59.05	830
65.05	882
66.15	306
67.05	5649
68.1	2856
69.1	11130
70.15	1248
71.05	25243
72.05	1802
77.05	3062
78.1	382
79.1	4036
80.1	9696
81.1	3558
82.1	1532
83.1	4715
84.15	1211
85.1	412
86.15	413
91.1	3740
92.1	4455
93.1	21477
94.1	2867
95.15	1047
96.15	2037
97.1	606
105.1	3998
106.1	532
107.1	2171
108.15	713
109.15	2003
111.1	940
119.1	330
121.15	5639
122.1	545
136.10001	2042
139.10001	398

NAME: Linalool
SCANNUMBER: -1
RETENTIONTIME: 7.305
RETENTIONINDEX: 1103.272
QUANTMASS: 154.10001
PRECURSORTYPE: [M]+.
IONMODE: Positive
SPECTRUMTYPE: Centroid
FORMULA: C10H18O
INCHIKEY: CDOSHBSSFJOMGT-UHFFFAOYSA-N
SMILES: CC(=CCCC(C)(C=C)O)C
AUTHORS: Jefferson Pastuna 
COLLISIONENERGY: 70eV
INSTRUMENT: Shimadzu
INSTRUMENTTYPE: GC-EI-Q
IONIZATION: EI
LICENSE: NA
COMMENT: 5 ppm of concentration; Semi-standard non-polar RI: 1103+/-0; RT in min.: 7.308+/-0.006
Num Peaks: 45
51.05	3096
52.05	1260
53.05	13864
54.15	2664
55.05	75463
56.05	11960
57.05	5232
58.05	2781
59.05	4488
65.05	3778
66.15	1264
67.05	26356
68.1	15111
69.1	52083
70.15	6259
71.05	123936
72.1	9145
77.05	8946
78.1	1252
79.1	18817
80.1	49079
81.1	17517
82.1	7875
83.1	23682
84.1	6628
85.1	2025
86.1	2401
91.1	16947
92.1	21033
93.1	103336
94.1	15000
95.1	4214
96.1	10354
97.1	3319
105.1	9849
106.15	1753
107.1	10467
108.15	3155
109.15	9862
111.1	4750
119.1	1394
121.15	28291
122.15	2836
136.10001	7641
139.10001	2015

NAME: Linalool
SCANNUMBER: -1
RETENTIONTIME: 7.315
RETENTIONINDEX: 1103.477
QUANTMASS: 154.14999
PRECURSORTYPE: [M]+.
IONMODE: Positive
SPECTRUMTYPE: Centroid
FORMULA: C10H18O
INCHIKEY: CDOSHBSSFJOMGT-UHFFFAOYSA-N
SMILES: CC(=CCCC(C)(C=C)O)C
AUTHORS: Jefferson Pastuna 
COLLISIONENERGY: 40
INSTRUMENT: Shimadzu
INSTRUMENTTYPE: GC-EI-Q
IONIZATION: EI
LICENSE: NA
COMMENT: 8 ppm of concentration; Semi-standard non-polar RI: 1103+/-0; RT in min.: 7.308+/-0.006
Num Peaks: 45
51	4725
52.05	2000
53.05	20588
54.15	4060
55.05	111198
56.05	17559
57.05	7793
58.05	4045
59.05	6583
65.05	5625
66.15	2123
67.05	40044
68.1	22617
69.1	81176
70.15	8906
71.1	188917
72.1	13768
77.05	14288
78.1	2019
79.1	29132
80.1	72831
81.1	26431
82.1	11816
83.1	35159
84.1	9513
85.1	3260
86.1	3451
91.1	25715
92.1	31812
93.1	156958
94.1	23290
95.1	6597
96.15	16174
97.15	4900
105.1	14915
106.15	3058
107.15	15728
108.15	4907
109.15	15413
111.15	7108
119.1	2242
121.15	43896
122.15	4311
136.14999	12117
139.14999	2887

NAME: trans-Cinnamaldehyde
SCANNUMBER: -1
RETENTIONTIME: 11.64
RETENTIONINDEX: 1277.21
QUANTMASS: 132.05
PRECURSORTYPE: [M]+.
IONMODE: Positive
SPECTRUMTYPE: Centroid
FORMULA: C9H8O
INCHIKEY: KJPRLNWUNMBNBZ-QPJJXVBHSA-N
SMILES: C1=CC=C(C=C1)/C=C/C=O
AUTHORS: Jefferson Pastuna 
COLLISIONENERGY: 70eV
INSTRUMENT: Shimadzu
INSTRUMENTTYPE: GC-EI-Q
IONIZATION: EI
LICENSE: NA
COMMENT: 1 ppm of concentration; Semi-standard non-polar RI: 1277+/-0; RT in min.: 11.643+/-0.003
Num Peaks: 27
50	1151
51	3489
52	866
53	177
54	132
61	139
62	263
63	755
65	230
66	191
74.05	742
75.05	744
76.1	896
77.05	5319
78.05	4271
79	313
89	132
91.1	269
101.1	188
102.1	1346
103.1	6847
104.1	3052
105	406
115	124
131.05	11272
132.05	6164
133.05	567

NAME: trans-Cinnamaldehyde
SCANNUMBER: -1
RETENTIONTIME: 11.645
RETENTIONINDEX: 1277.603
QUANTMASS: 132.10001
PRECURSORTYPE: [M]+.
IONMODE: Positive
SPECTRUMTYPE: Centroid
FORMULA: C9H8O
INCHIKEY: KJPRLNWUNMBNBZ-QPJJXVBHSA-N
SMILES: C1=CC=C(C=C1)/C=C/C=O
AUTHORS: Jefferson Pastuna 
COLLISIONENERGY: 70eV
INSTRUMENT: Shimadzu
INSTRUMENTTYPE: GC-EI-Q
IONIZATION: EI
LICENSE: NA
COMMENT: 5 ppm of concentration; Semi-standard non-polar RI: 1277+/-0; RT in min.: 11.643+/-0.003
Num Peaks: 27
50	6557
51.05	19506
52	5030
53	1029
54.05	725
55	702
61	696
62	1703
63	4278
65.15	1099
66.05	844
74.05	3781
75.05	3723
76.05	5226
77.05	29976
78.05	23776
79.05	1547
89.1	982
91.05	1371
101.1	1052
102.1	7489
103.1	40718
104.1	16983
105.1	2095
131.10001	66599
132.10001	36280
133.10001	3378

NAME: trans-Cinnamaldehyde
SCANNUMBER: -1
RETENTIONTIME: 11.645
RETENTIONINDEX: 1277.407
QUANTMASS: 132.10001
PRECURSORTYPE: [M]+.
IONMODE: Positive
SPECTRUMTYPE: Centroid
FORMULA: C9H8O
INCHIKEY: KJPRLNWUNMBNBZ-QPJJXVBHSA-N
SMILES: C1=CC=C(C=C1)/C=C/C=O
AUTHORS: Jefferson Pastuna 
COLLISIONENERGY: 70eV
INSTRUMENT: Shimadzu
INSTRUMENTTYPE: GC-EI-Q
IONIZATION: EI
LICENSE: NA
COMMENT: 
Num Peaks: 25
50	12618
51.05	36545
52	9456
53	1960
55	1372
62	3284
63	8155
65.1	2086
66.05	1502
74.05	7367
75.05	7033
76.05	9872
77.05	55971
78.05	44704
79.1	2890
89.05	1769
91.1	2642
101.1	1915
102.1	14191
103.1	76545
104.1	32165
105.1	3959
131.10001	127641
132.10001	67043
133.10001	6210

NAME: Methyl cinnamate
SCANNUMBER: -1
RETENTIONTIME: 14.49
RETENTIONINDEX: 1389.505
QUANTMASS: 162.05
PRECURSORTYPE: [M]+.
IONMODE: Positive
SPECTRUMTYPE: Centroid
FORMULA: C10H10O2
INCHIKEY: CCRCUPLGCSFEDV-BQYQJAHWSA-N
SMILES: COC(=O)/C=C/C1=CC=CC=C1
AUTHORS: Jefferson Pastuna 
COLLISIONENERGY: 70eV
INSTRUMENT: Shimadzu
INSTRUMENTTYPE: GC-EI-Q
IONIZATION: EI
LICENSE: NA
COMMENT: 1 ppm of concentration; Semi-standard non-polar RI: 1390+/-0; RT in min.: 14.485+/-0.005
Num Peaks: 36
50	2279
51.05	9162
51.95	1399
53	457
62	510
63	1402
65.3	731
74.05	1349
75.05	1749
76.05	2804
77.05	17401
78.1	2059
85.1	522
91.1	1609
92.1	686
101.1	670
102.1	6822
103.1	32633
104.1	3733
105.05	617
115.1	676
116.15	752
117.15	1894
118.1	617
119.1	439
121.1	625
130.14999	1129
131.10001	37991
132.10001	3707
133.10001	432
134.05	440
144.05	856
147.10001	562
161.10001	9546
162.05	17911
163.05	1972

NAME: Methyl tetracosanoate
SCANNUMBER: -1
RETENTIONTIME: 47.88
RETENTIONINDEX: 2734.629
QUANTMASS: 382.39999
PRECURSORTYPE: [M]+.
IONMODE: Positive
SPECTRUMTYPE: Centroid
FORMULA: C25H50O2
INCHIKEY: XUDJZDNUVZHSKZ-UHFFFAOYSA-N
SMILES: CCCCCCCCCCCCCCCCCCCCCCCC(=O)OC
AUTHORS: Jefferson Pastuna 
COLLISIONENERGY: 70eV
INSTRUMENT: Shimadzu
INSTRUMENTTYPE: GC-EI-Q
IONIZATION: EI
LICENSE: NA
COMMENT: 1 ppm of concentration; Semi-standard non-polar RI: 2735+/-0; RT in min.: 47.878+/-0.003
Num Peaks: 80
54	63
55.05	1581
56.05	311
57.05	1647
58	98
59.05	312
67.1	303
68.1	95
69.1	1335
70.05	290
71.15	896
73.1	96
74.05	5910
75.1	2197
76.1	61
79.1	62
81.1	318
82.05	133
83.1	961
84.1	317
85.15	518
87.1	4344
88.1	397
93.1	82
95.15	382
96.1	179
97.1	844
98.15	295
99.2	115
101.1	759
102.1	105
105.1	84
107.1	78
109.1	167
110.1	71
111.15	442
112.1	90
113.1	61
115.15	273
116.2	136
121	116
123	93
125.15	183
126.2	65
129.10001	652
130.10001	188
135.10001	61
139.10001	64
143.10001	1634
144.10001	177
157.14999	266
171.10001	281
172.10001	117
185.2	499
186.2	130
199.14999	785
200.2	127
213	233
214	64
227.2	489
228.2	77
241.2	486
242.2	97
255.2	391
256.20001	68
269.20001	208
270.20001	80
282.10001	66
283.10001	546
284.20001	139
297.29999	420
298.29999	99
311.25	197
325.10001	149
339.35001	1118
340.14999	222
351.10001	85
353.10001	148
382.39999	1645
383.35001	423

NAME: Methyl tetracosanoate
SCANNUMBER: -1
RETENTIONTIME: 47.875
RETENTIONINDEX: 2735.563
QUANTMASS: 382.35001
PRECURSORTYPE: [M]+.
IONMODE: Positive
SPECTRUMTYPE: Centroid
FORMULA: C25H50O2
INCHIKEY: XUDJZDNUVZHSKZ-UHFFFAOYSA-N
SMILES: CCCCCCCCCCCCCCCCCCCCCCCC(=O)OC
AUTHORS: Jefferson Pastuna 
COLLISIONENERGY: 70eV
INSTRUMENT: Shimadzu
INSTRUMENTTYPE: GC-EI-Q
IONIZATION: EI
LICENSE: NA
COMMENT: 5 ppm of concentration; Semi-standard non-polar RI: 2735+/-0; RT in min.: 47.878+/-0.003
Num Peaks: 82
54.1	951
55.05	16599
56.05	3355
57.1	18227
58.05	1001
59.05	3247
67.05	2860
68.1	1275
69.1	13065
70.1	2546
71.1	9122
73.1	1530
74.05	63007
75.05	22734
76.05	933
79.1	786
81.1	3635
82.1	1498
83.1	9835
84.1	2898
85.1	4993
87.1	47490
88.1	3936
93.1	983
95.1	3114
96.1	1213
97.1	9069
98.1	3302
99.15	1342
101.1	6992
102.1	875
107.15	968
109.15	2001
110.15	709
111.15	4290
112.15	1022
113.15	811
115.1	2698
116.1	1342
121.15	1332
123.1	1240
125.15	2152
129.10001	6206
130.14999	2226
135.10001	1179
137.10001	635
139.10001	1057
143.10001	15955
144.10001	1801
149.10001	687
153.14999	717
157.14999	3021
171.14999	2880
172.2	875
185.2	5078
186.14999	1263
199.14999	7796
200.2	1348
213.2	2851
214.2	874
227.2	4389
228.2	1000
241.2	4944
242.25	1177
255.2	4174
256.25	930
269.25	2599
270.25	876
283.25	6891
284.29999	1699
297.29999	4449
298.29999	989
311.35001	2306
312.29999	644
325.29999	2368
339.35001	10643
340.39999	2643
351.35001	1645
353.35001	2081
382.35001	16310
383.39999	4510
384.45001	655

NAME: Methyl tetracosanoate
SCANNUMBER: -1
RETENTIONTIME: 47.88
RETENTIONINDEX: 2735.211
QUANTMASS: 382.35001
PRECURSORTYPE: [M]+.
IONMODE: Positive
SPECTRUMTYPE: Centroid
FORMULA: C25H50O2
INCHIKEY: XUDJZDNUVZHSKZ-UHFFFAOYSA-N
SMILES: CCCCCCCCCCCCCCCCCCCCCCCC(=O)OC
AUTHORS: Jefferson Pastuna 
COLLISIONENERGY: 70eV
INSTRUMENT: Shimadzu
INSTRUMENTTYPE: GC-EI-Q
IONIZATION: EI
LICENSE: NA
COMMENT: 8 ppm of concentration; Semi-standard non-polar RI: 2735+/-0; RT in min.: 47.878+/-0.003
Num Peaks: 81
54.05	1815
55.05	31260
56.05	6387
57.05	33700
58.05	1907
59	5852
67.05	5110
68.1	2372
69.1	23872
70.1	4569
71.1	17464
73.15	3075
74.05	122393
75.05	43217
76.05	1784
79.05	1464
81.05	6302
82.1	2739
83.1	18491
84.1	5871
85.1	9710
87.05	92423
88.1	7798
93.1	1797
95.1	5793
96.1	2441
97.1	17069
98.1	6301
99.15	2672
101.1	13317
102.1	1716
107.15	1786
109.15	3950
110.15	1318
111.15	8404
112.2	1662
113.15	1659
115.1	5304
116.1	2682
121.1	2468
123.15	2310
125.15	4124
129.10001	11969
130.10001	4292
135.10001	2157
139.14999	1899
143.10001	32132
144.10001	3548
149.10001	1317
157.14999	5870
158.10001	1350
171.14999	5735
172.14999	1669
185.14999	10206
186.14999	2665
199.14999	15633
200.2	2830
213.14999	5924
214.14999	1782
227.2	9045
228.2	2308
241.2	9866
242.2	2370
255.2	8506
256.20001	1932
269.20001	5419
270.20001	1902
283.25	14205
284.20001	3262
297.25	9070
298.25	2042
311.29999	4766
325.25	4892
326.35001	1368
339.29999	21679
340.29999	5538
351.35001	3391
353.29999	4308
382.35001	34979
383.35001	9491
384.39999	1318

NAME: Methyl cinnamate
SCANNUMBER: -1
RETENTIONTIME: 14.48
RETENTIONINDEX: 1389.526
QUANTMASS: 162.10001
PRECURSORTYPE: [M]+.
IONMODE: Positive
SPECTRUMTYPE: Centroid
FORMULA: C10H10O2
INCHIKEY: CCRCUPLGCSFEDV-BQYQJAHWSA-N
SMILES: COC(=O)/C=C/C1=CC=CC=C1
AUTHORS: Jefferson Pastuna 
COLLISIONENERGY: 70eV
INSTRUMENT: Shimadzu
INSTRUMENTTYPE: GC-EI-Q
IONIZATION: EI
LICENSE: NA
COMMENT: 5 ppm of concentration; Semi-standard non-polar RI: 1390+/-0; RT in min.: 14.485+/-0.005
Num Peaks: 37
50.05	8473
51.05	30912
52.05	4717
53.05	1558
62	1810
63	4783
65.2	2638
74.05	5144
75.05	5964
76.1	10199
77.05	60112
78.05	6957
85.05	1826
89.05	1531
91.1	6109
92.1	2520
101.1	2167
102.1	24074
103.1	115152
104.1	13711
105.1	2437
115.1	2354
116.1	2591
117.1	7367
118.1	2105
119.1	1442
121.1	2240
130.14999	4198
131.10001	137936
132.10001	13391
133.10001	1761
134.10001	1979
144.10001	3084
147.10001	2020
161.10001	35794
162.10001	64763
163.05	7072

NAME: Methyl cinnamate
SCANNUMBER: -1
RETENTIONTIME: 14.485
RETENTIONINDEX: 1389.723
QUANTMASS: 162.05
PRECURSORTYPE: [M]+.
IONMODE: Positive
SPECTRUMTYPE: Centroid
FORMULA: C10H10O2
INCHIKEY: CCRCUPLGCSFEDV-BQYQJAHWSA-N
SMILES: COC(=O)/C=C/C1=CC=CC=C1
AUTHORS: Jefferson Pastuna 
COLLISIONENERGY: 70eV
INSTRUMENT: Shimadzu
INSTRUMENTTYPE: GC-EI-Q
IONIZATION: EI
LICENSE: NA
COMMENT: 8 ppm of concentration; Semi-standard non-polar RI: 1390+/-0; RT in min.: 14.485+/-0.005
Num Peaks: 36
50	20235
51.05	75372
51.95	11774
53	3980
62	4404
63	11146
65.25	5656
74.05	10937
75.05	14324
76.05	23541
77.05	140356
78.05	16029
85.05	4301
89.05	3185
91.05	13167
92.1	5417
101.1	5221
102.1	54631
103.1	257390
104.1	30556
105.1	5393
115.1	5329
116.1	5888
117.1	16395
118.1	4551
121.05	5044
130.14999	9827
131.05	304003
132.05	30105
133.05	3732
134.05	3875
144.05	6433
147.05	4258
161.05	76646
162.05	143589
163.05	15517

NAME: Nicotinic acid
SCANNUMBER: -1
RETENTIONTIME: 10.405
RETENTIONINDEX: 1228.88
QUANTMASS: 123.05
PRECURSORTYPE: [M]+.
IONMODE: Positive
SPECTRUMTYPE: Centroid
FORMULA: C6H5NO2
INCHIKEY: PVNIIMVLHYAWGP-UHFFFAOYSA-N
SMILES: C1=CC(=CN=C1)C(=O)O
AUTHORS: Jefferson Pastuna 
COLLISIONENERGY: 70eV
INSTRUMENT: Shimadzu
INSTRUMENTTYPE: GC-EI-Q
IONIZATION: EI
LICENSE: NA
COMMENT: 5 ppm of concentration; Semi-standard non-polar RI: 1229+/-0; RT in min.: 10.405+/-0
Num Peaks: 34
50.05	486
51	949
52.05	291
53.1	113
55.1	34
68.1	34
69.1	37
74.1	28
75.1	123
76	120
77	753
78.05	1220
79	80
105.05	1711
106.1	729
107.1	70
123.05	2222
124	183
125	28
126	52
133	48
135	23
147	24
163	30
164	26
189	34
208.05	44
210.10001	37
249.10001	51
265.10001	57
281.10001	301
282.10001	110
283.10001	54
329.10001	32

NAME: Nicotinic acid
SCANNUMBER: -1
RETENTIONTIME: 10.405
RETENTIONINDEX: 1228.88
QUANTMASS: 123.05
PRECURSORTYPE: [M]+.
IONMODE: Positive
SPECTRUMTYPE: Centroid
FORMULA: C6H5NO2
INCHIKEY: PVNIIMVLHYAWGP-UHFFFAOYSA-N
SMILES: C1=CC(=CN=C1)C(=O)O
AUTHORS: Jefferson Pastuna 
COLLISIONENERGY: 70eV
INSTRUMENT: Shimadzu
INSTRUMENTTYPE: GC-EI-Q
IONIZATION: EI
LICENSE: NA
COMMENT: 8 ppm of concentration; Semi-standard non-polar RI: 1229+/-0; RT in min.: 10.405+/-0
Num Peaks: 22
50	2490
51	4308
52	1573
53	633
66	179
67	156
74.1	132
75.05	257
76	486
77	3560
78.05	6194
79.05	493
94	190
105.05	8778
106.05	3676
107.1	248
123.05	11132
124.05	820
265	112
281.04999	589
281.95001	133
283	132

NAME: Resorcinol
SCANNUMBER: -1
RETENTIONTIME: 11.825
RETENTIONINDEX: 1284.055
QUANTMASS: 110.05
PRECURSORTYPE: [M]+.
IONMODE: Positive
SPECTRUMTYPE: Centroid
FORMULA: C6H6O2
INCHIKEY: GHMLBKRAJCXXBS-UHFFFAOYSA-N
SMILES: C1=CC(=CC(=C1)O)O
AUTHORS: Jefferson Pastuna 
COLLISIONENERGY: 70eV
INSTRUMENT: Shimadzu
INSTRUMENTTYPE: GC-EI-Q
IONIZATION: EI
LICENSE: NA
COMMENT: 1 ppm of concentration; Semi-standard non-polar RI: 1284+/-0; RT in min.: 11.815+/-0.010
Num Peaks: 27
50	92
51	152
52	79
53.1	583
54.05	358
55	376
62	84
63	251
64	265
65	93
66	63
68	108
69.05	483
71.1	71
81.1	745
82.1	1293
83.1	64
95.1	64
109.1	48
110.05	4565
111.1	314
133.05	54
207	133
208	154
249	46
265	70
281.04999	68

NAME: Resorcinol
SCANNUMBER: -1
RETENTIONTIME: 11.805
RETENTIONINDEX: 1284.086
QUANTMASS: 110.1
PRECURSORTYPE: [M]+.
IONMODE: Positive
SPECTRUMTYPE: Centroid
FORMULA: C6H6O2
INCHIKEY: GHMLBKRAJCXXBS-UHFFFAOYSA-N
SMILES: C1=CC(=CC(=C1)O)O
AUTHORS: Jefferson Pastuna 
COLLISIONENERGY: 70eV
INSTRUMENT: Shimadzu
INSTRUMENTTYPE: GC-EI-Q
IONIZATION: EI
LICENSE: NA
COMMENT: 5 ppm of concentration; Semi-standard non-polar RI: 1284+/-0; RT in min.: 11.815+/-0.010
Num Peaks: 22
50	1165
51	1734
52	985
53	5979
54.05	3628
55.05	3870
61.05	497
62	857
63	2613
64.05	2306
65.05	701
66	544
68.05	1025
69.05	4613
71.05	742
81.05	7868
82.05	12979
83.05	707
95	789
109.15	842
110.1	46555
111.1	3097

NAME: Resorcinol
SCANNUMBER: -1
RETENTIONTIME: 11.815
RETENTIONINDEX: 1284.283
QUANTMASS: 110.05
PRECURSORTYPE: [M]+.
IONMODE: Positive
SPECTRUMTYPE: Centroid
FORMULA: C6H6O2
INCHIKEY: GHMLBKRAJCXXBS-UHFFFAOYSA-N
SMILES: C1=CC(=CC(=C1)O)O
AUTHORS: Jefferson Pastuna 
COLLISIONENERGY: 70eV
INSTRUMENT: Shimadzu
INSTRUMENTTYPE: GC-EI-Q
IONIZATION: EI
LICENSE: NA
COMMENT: 8 ppm of concentration; Semi-standard non-polar RI: 1284+/-0; RT in min.: 11.815+/-0.010
Num Peaks: 22
50	1406
51	2103
52	1227
53	7540
54.05	4535
55	4676
60.95	642
62	1130
63	3340
64	3007
65	1021
66.05	745
68.05	1507
69	6221
71.05	976
81.05	9932
82.05	16523
83.05	932
95.05	1096
109.15	1078
110.05	61073
111.1	3961

NAME: Coumarin
SCANNUMBER: -1
RETENTIONTIME: 15.91
RETENTIONINDEX: 1447.561
QUANTMASS: 146.05
PRECURSORTYPE: [M]+.
IONMODE: Positive
SPECTRUMTYPE: Centroid
FORMULA: C9H6O2
INCHIKEY: ZYGHJZDHTFUPRJ-UHFFFAOYSA-N
SMILES: C1=CC=C2C(=C1)C=CC(=O)O2
AUTHORS: Jefferson Pastuna 
COLLISIONENERGY: 70eV
INSTRUMENT: Shimadzu
INSTRUMENTTYPE: GC-EI-Q
IONIZATION: EI
LICENSE: NA
COMMENT: 5 ppm of concentration; Semi-standard non-polar RI: 1447+/-0; RT in min.: 15.908+/-0.003
Num Peaks: 20
50	2692
51	3644
53	602
59	3534
61	1515
62	4174
63	12711
64	4190
74	1307
75.05	1134
86.05	823
87.1	857
89.1	22007
90.1	24623
91.05	1830
92.05	1223
118.1	54827
119.05	4724
146.05	37927
147.05	3812

NAME: Coumarin
SCANNUMBER: -1
RETENTIONTIME: 15.91
RETENTIONINDEX: 1447.047
QUANTMASS: 146.05
PRECURSORTYPE: [M]+.
IONMODE: Positive
SPECTRUMTYPE: Centroid
FORMULA: C9H6O2
INCHIKEY: ZYGHJZDHTFUPRJ-UHFFFAOYSA-N
SMILES: C1=CC=C2C(=C1)C=CC(=O)O2
AUTHORS: Jefferson Pastuna 
COLLISIONENERGY: 70eV
INSTRUMENT: Shimadzu
INSTRUMENTTYPE: GC-EI-Q
IONIZATION: EI
LICENSE: NA
COMMENT: 1 ppm of concentration; Semi-standard non-polar RI: 1447+/-0; RT in min.: 15.908+/-0.003
Num Peaks: 22
50.05	399
51	530
59.05	452
61.05	231
62	626
63	1799
64.05	622
65	86
73.1	101
74.1	189
75.1	134
86.1	109
89.1	3132
90.1	3534
91.1	262
92.1	205
118.1	7691
119.05	661
146.05	5204
147	519
207	151
281.10001	94

NAME: Coumarin
SCANNUMBER: -1
RETENTIONTIME: 15.905
RETENTIONINDEX: 1447.154
QUANTMASS: 146.05
PRECURSORTYPE: [M]+.
IONMODE: Positive
SPECTRUMTYPE: Centroid
FORMULA: C9H6O2
INCHIKEY: ZYGHJZDHTFUPRJ-UHFFFAOYSA-N
SMILES: C1=CC=C2C(=C1)C=CC(=O)O2
AUTHORS: Jefferson Pastuna 
COLLISIONENERGY: 70eV
INSTRUMENT: Shimadzu
INSTRUMENTTYPE: GC-EI-Q
IONIZATION: EI
LICENSE: NA
COMMENT: 8 ppm of concentration; Semi-standard non-polar RI: 1447+/-0; RT in min.: 15.908+/-0.003
Num Peaks: 20
50	4473
51	6179
52.95	984
59.05	5711
61	2437
62	7129
63	20729
64	7091
74.05	2258
75.05	1876
86.05	1444
87.05	1264
89.05	34841
90.1	39898
91.1	2980
92.05	2017
118.1	86301
119.1	7292
146.05	60019
147.05	5685

NAME: Anthraquinone
SCANNUMBER: -1
RETENTIONTIME: 27.8
RETENTIONINDEX: 1981.333
QUANTMASS: 208.05
PRECURSORTYPE: [M]+.
IONMODE: Positive
SPECTRUMTYPE: Centroid
FORMULA: C14H8O2
INCHIKEY: RZVHIXYEVGDQDX-UHFFFAOYSA-N
SMILES: C1=CC=C2C(=C1)C(=O)C3=CC=CC=C3C2=O
AUTHORS: Jefferson Pastuna 
COLLISIONENERGY: 70eV
INSTRUMENT: Shimadzu
INSTRUMENTTYPE: GC-EI-Q
IONIZATION: EI
LICENSE: NA
COMMENT: 1 ppm of concentration;Semi-standard non-polar RI: 1982+/-1; RT in min.: 27.798+/-0.006
Num Peaks: 82
50	91
51	54
55.05	117
56.05	18
57.1	549
58.1	13
63.1	130
65.1	8
67.1	8
69.1	158
71.1	661
72.1	67
73.05	29
74.1	19
75.1	101
76.05	354
77.1	67
80.1	12
82.1	11
83.1	54
84.15	173
85.1	487
86.1	51
87.1	23
89.1	11
90.1	44
94.1	13
96.1	98
97	53
98	12
99.15	367
100.2	22
106.2	15
111.1	75
112.1	58
113.15	190
114.2	36
117.2	15
119.2	8
122.2	43
124.2	22
125.2	60
126.2	80
127.15	168
128.2	25
131.2	9
133.2	50
135.2	24
139.2	15
140.2	14
141.2	68
142.2	8
149.2	22
150.2	108
151	306
152.05	560
153.10001	54
155.10001	37
161.10001	29
163.10001	43
164.10001	13
165.10001	34
167.10001	20
168.10001	15
169.10001	33
177.10001	44
179.10001	73
180.05	662
181.10001	97
183.10001	30
189.10001	15
192	22
193	29
195	15
207.05	260
208.05	724
209.05	62
210	19
211	35
249	24
269	21
282.10001	25

NAME: Anthraquinone
SCANNUMBER: -1
RETENTIONTIME: 27.805
RETENTIONINDEX: 1982.405
QUANTMASS: 208.05
PRECURSORTYPE: [M]+.
IONMODE: Positive
SPECTRUMTYPE: Centroid
FORMULA: C14H8O2
INCHIKEY: RZVHIXYEVGDQDX-UHFFFAOYSA-N
SMILES: C1=CC=C2C(=C1)C(=O)C3=CC=CC=C3C2=O
AUTHORS: Jefferson Pastuna 
COLLISIONENERGY: 70eV
INSTRUMENT: Shimadzu
INSTRUMENTTYPE: GC-EI-Q
IONIZATION: EI
LICENSE: NA
COMMENT: 5 ppm of concentration; Semi-standard non-polar RI: 1982+/-1; RT in min.: 27.798+/-0.006
Num Peaks: 32
50	960
51	316
62	145
63.05	887
74	639
75.05	1127
76.05	3271
77	613
86	138
87	193
89.2	91
90.2	532
98.2	183
99.2	221
100.2	149
101.2	98
102.1	293
104.1	104
125.1	300
126.05	724
149.10001	103
150.05	1344
151.05	2559
152.10001	5664
153.10001	805
179.14999	439
180.05	7042
181.05	1011
207.05	1288
208.05	9034
209	1446
210	139

NAME: Anthraquinone
SCANNUMBER: -1
RETENTIONTIME: 27.795
RETENTIONINDEX: 1981.375
QUANTMASS: 208.05
PRECURSORTYPE: [M]+.
IONMODE: Positive
SPECTRUMTYPE: Centroid
FORMULA: C14H8O2
INCHIKEY: RZVHIXYEVGDQDX-UHFFFAOYSA-N
SMILES: C1=CC=C2C(=C1)C(=O)C3=CC=CC=C3C2=O
AUTHORS: Jefferson Pastuna 
COLLISIONENERGY: 70eV
INSTRUMENT: Shimadzu
INSTRUMENTTYPE: GC-EI-Q
IONIZATION: EI
LICENSE: NA
COMMENT: 8 ppm of concentration; Semi-standard non-polar RI: 1982+/-1; RT in min.: 27.798+/-0.006
Num Peaks: 31
50	1046
51	342
62	166
63.05	1032
74.05	721
75.05	1314
76.05	3645
76.95	728
86	170
87	241
90.1	582
98.05	263
99	241
100	159
101	168
102	310
104	109
125	289
126.1	899
149	124
150.05	1540
151.10001	2999
152.05	6180
153.05	822
179.10001	600
180.05	7428
181.05	1079
207	1391
208.05	9887
209	1466
210	162

NAME: Eugenol
SCANNUMBER: -1
RETENTIONTIME: 13.83
RETENTIONINDEX: 1363.636
PRECURSORMZ: 164.05
PRECURSORTYPE: [M]+.
IONMODE: Positive
SPECTRUMTYPE: Centroid
FORMULA: C10H12O2
INCHIKEY: RRAFCDWBNXTKKO-UHFFFAOYSA-N
SMILES: COC1=C(C=CC(=C1)CC=C)O
AUTHORS: Jefferson Pastuna  
COLLISIONENERGY: 70eV
INSTRUMENT: Shimadzu
INSTRUMENTTYPE: GC-EI-Q
IONIZATION: EI
LICENSE: NA
COMMENT: 1 ppm of concentration; Semi-standard non-polar RI: 1364+/-0; RT in min.: 13.833+/-0.003
Num Peaks: 54
50.05	598
51	2026
52.05	744
53	1183
55	4063
56	190
61.95	277
63	828
64	274
65	1982
66	976
67.1	311
74.05	187
75	287
76.05	279
77.05	5984
78.05	1818
79.05	1665
81.1	469
89.05	488
90.1	205
91.05	5016
92.1	627
93.05	1540
94.05	1477
95.05	255
102.1	572
103.1	6473
104.1	4255
105.1	2323
106.1	293
107.1	1002
108.1	155
109.1	249
115.1	578
118.1	173
119.1	406
120.15	257
121.05	4063
122.05	1693
123.05	221
131.05	5151
132.10001	2598
133.05	3346
134.05	384
135	359
137.05	2690
138.10001	250
147.05	768
149.05	5317
150	591
163.14999	648
164.05	15354
165.05	1580

NAME: Eugenol
SCANNUMBER: -1
RETENTIONTIME: 13.835
RETENTIONINDEX: 1364.032
PRECURSORMZ: 164.10001
PRECURSORTYPE: [M]+.
IONMODE: Positive
SPECTRUMTYPE: Centroid
FORMULA: C10H12O2
INCHIKEY: RRAFCDWBNXTKKO-UHFFFAOYSA-N
SMILES: COC1=C(C=CC(=C1)CC=C)O
AUTHORS: Jefferson Pastuna  
COLLISIONENERGY: 70eV
INSTRUMENT: Shimadzu
INSTRUMENTTYPE: GC-EI-Q
IONIZATION: EI
LICENSE: NA
COMMENT: 1 ppm of concentration; Semi-standard non-polar RI: 1364+/-0; RT in min.: 13.833+/-0.003
Num Peaks: 55
50	3834
51.05	13219
52.05	4980
53	7550
55	28345
62	1980
63	5307
64.05	1739
65.05	13074
66.05	6822
67	1872
74	1387
75.05	1667
76.05	1822
77.05	41037
78.05	12213
79.05	11925
80.05	1321
81.05	3255
89.1	3024
90.15	1340
91.05	33934
92.05	3975
93.1	10070
94.05	9972
95.05	1548
102.15	3489
103.1	43280
104.1	28301
105.1	15580
106.1	2014
107.1	6220
109.1	1700
115.1	4005
117.1	1173
118.1	1058
119.1	2757
120.15	1530
121.1	29077
122.05	12471
123.1	1469
131.05	35655
132.10001	18027
133.10001	23382
134.10001	2399
135.05	2302
137.05	19093
138.10001	1717
147.10001	5483
148.14999	1252
149.05	37132
150.05	3815
163.14999	4629
164.10001	104865
165.10001	11470

NAME: Eugenol
SCANNUMBER: -1
RETENTIONTIME: 13.84
RETENTIONINDEX: 1364.032
PRECURSORMZ: 164.10001
PRECURSORTYPE: [M]+.
IONMODE: Positive
SPECTRUMTYPE: Centroid
FORMULA: C10H12O2
INCHIKEY: RRAFCDWBNXTKKO-UHFFFAOYSA-N
SMILES: COC1=C(C=CC(=C1)CC=C)O
AUTHORS: Jefferson Pastuna  
COLLISIONENERGY: 70eV
INSTRUMENT: Shimadzu
INSTRUMENTTYPE: GC-EI-Q
IONIZATION: EI
LICENSE: NA
COMMENT: 1 ppm of concentration; Semi-standard non-polar RI: 1364+/-0; RT in min.: 13.833+/-0.003
Num Peaks: 54
50	5018
51.05	16424
52.05	6609
53.05	9441
55	35102
62	2537
63	6730
64	2082
65.05	16667
66.05	8510
67.05	2356
74.05	1829
75.05	2080
76.15	2244
77.05	52051
78.05	15608
79.05	15451
80.05	1854
81.05	3848
89.1	3871
90.15	1626
91.1	43955
92.1	5215
93.1	13456
94.05	12578
95.1	1943
102.15	4303
103.1	55928
104.1	37252
105.1	19824
106.1	2641
107.1	8030
109.05	2102
115.1	5036
117.1	1460
119.1	3302
120.15	1895
121.1	37756
122.1	16343
123.1	1783
131.10001	45528
132.10001	23648
133.10001	29673
134.10001	3340
135.05	3216
137.05	23736
138.10001	2165
147.10001	6793
148.14999	1515
149.05	47170
150.05	5066
163.14999	6016
164.10001	138451
165.10001	15298

